c CNF file corresponding to a (partial) station packing problem.
p cnf 3348 229
1 2 3 4 5 6 7 8 9 10 11 12 13 14 0
-1 -2 0
-1 -3 0
-1 -4 0
-1 -5 0
-1 -6 0
-1 -7 0
-1 -8 0
-1 -9 0
-1 -10 0
-1 -11 0
-1 -12 0
-1 -13 0
-1 -14 0
-2 -3 0
-2 -4 0
-2 -5 0
-2 -6 0
-2 -7 0
-2 -8 0
-2 -9 0
-2 -10 0
-2 -11 0
-2 -12 0
-2 -13 0
-2 -14 0
-3 -4 0
-3 -5 0
-3 -6 0
-3 -7 0
-3 -8 0
-3 -9 0
-3 -10 0
-3 -11 0
-3 -12 0
-3 -13 0
-3 -14 0
-4 -5 0
-4 -6 0
-4 -7 0
-4 -8 0
-4 -9 0
-4 -10 0
-4 -11 0
-4 -12 0
-4 -13 0
-4 -14 0
-5 -6 0
-5 -7 0
-5 -8 0
-5 -9 0
-5 -10 0
-5 -11 0
-5 -12 0
-5 -13 0
-5 -14 0
-6 -7 0
-6 -8 0
-6 -9 0
-6 -10 0
-6 -11 0
-6 -12 0
-6 -13 0
-6 -14 0
-7 -8 0
-7 -9 0
-7 -10 0
-7 -11 0
-7 -12 0
-7 -13 0
-7 -14 0
-8 -9 0
-8 -10 0
-8 -11 0
-8 -12 0
-8 -13 0
-8 -14 0
-9 -10 0
-9 -11 0
-9 -12 0
-9 -13 0
-9 -14 0
-10 -11 0
-10 -12 0
-10 -13 0
-10 -14 0
-11 -12 0
-11 -13 0
-11 -14 0
-12 -13 0
-12 -14 0
-13 -14 0
3332 3333 3334 3335 3336 3337 3338 3339 3340 3341 3342 3343 3344 3345 3346 3347 3348 0
-3332 -3333 0
-3332 -3334 0
-3332 -3335 0
-3332 -3336 0
-3332 -3337 0
-3332 -3338 0
-3332 -3339 0
-3332 -3340 0
-3332 -3341 0
-3332 -3342 0
-3332 -3343 0
-3332 -3344 0
-3332 -3345 0
-3332 -3346 0
-3332 -3347 0
-3332 -3348 0
-3333 -3334 0
-3333 -3335 0
-3333 -3336 0
-3333 -3337 0
-3333 -3338 0
-3333 -3339 0
-3333 -3340 0
-3333 -3341 0
-3333 -3342 0
-3333 -3343 0
-3333 -3344 0
-3333 -3345 0
-3333 -3346 0
-3333 -3347 0
-3333 -3348 0
-3334 -3335 0
-3334 -3336 0
-3334 -3337 0
-3334 -3338 0
-3334 -3339 0
-3334 -3340 0
-3334 -3341 0
-3334 -3342 0
-3334 -3343 0
-3334 -3344 0
-3334 -3345 0
-3334 -3346 0
-3334 -3347 0
-3334 -3348 0
-3335 -3336 0
-3335 -3337 0
-3335 -3338 0
-3335 -3339 0
-3335 -3340 0
-3335 -3341 0
-3335 -3342 0
-3335 -3343 0
-3335 -3344 0
-3335 -3345 0
-3335 -3346 0
-3335 -3347 0
-3335 -3348 0
-3336 -3337 0
-3336 -3338 0
-3336 -3339 0
-3336 -3340 0
-3336 -3341 0
-3336 -3342 0
-3336 -3343 0
-3336 -3344 0
-3336 -3345 0
-3336 -3346 0
-3336 -3347 0
-3336 -3348 0
-3337 -3338 0
-3337 -3339 0
-3337 -3340 0
-3337 -3341 0
-3337 -3342 0
-3337 -3343 0
-3337 -3344 0
-3337 -3345 0
-3337 -3346 0
-3337 -3347 0
-3337 -3348 0
-3338 -3339 0
-3338 -3340 0
-3338 -3341 0
-3338 -3342 0
-3338 -3343 0
-3338 -3344 0
-3338 -3345 0
-3338 -3346 0
-3338 -3347 0
-3338 -3348 0
-3339 -3340 0
-3339 -3341 0
-3339 -3342 0
-3339 -3343 0
-3339 -3344 0
-3339 -3345 0
-3339 -3346 0
-3339 -3347 0
-3339 -3348 0
-3340 -3341 0
-3340 -3342 0
-3340 -3343 0
-3340 -3344 0
-3340 -3345 0
-3340 -3346 0
-3340 -3347 0
-3340 -3348 0
-3341 -3342 0
-3341 -3343 0
-3341 -3344 0
-3341 -3345 0
-3341 -3346 0
-3341 -3347 0
-3341 -3348 0
-3342 -3343 0
-3342 -3344 0
-3342 -3345 0
-3342 -3346 0
-3342 -3347 0
-3342 -3348 0
-3343 -3344 0
-3343 -3345 0
-3343 -3346 0
-3343 -3347 0
-3343 -3348 0
-3344 -3345 0
-3344 -3346 0
-3344 -3347 0
-3344 -3348 0
-3345 -3346 0
-3345 -3347 0
-3345 -3348 0
-3346 -3347 0
-3346 -3348 0
-3347 -3348 0
